300
298
299
298
297
296
295
294
293
292
291
291
290
289
288
288
287
286
286
285
284
285
285
284
283
283
282
281
280
276
279
279
278
271
277
276
275
274
274
274
273
270
272
271
270
267
269
268
267
266
265
264
263
262
262
260
259
261
260
258
260
257
259
258
257
255
256
253
255
254
253
253
252
252
251
250
249
248
247
244
246
245
246
245
243
244
242
243
241
242
241
240
240
240
239
239
239
238
238
237
235
237
237
236
235
234
233
232
232
230
231
230
229
230
229
229
228
227
224
226
225
223
224
223
222
221
220
219
216
218
217
215
216
215
214
215
214
213
211
210
210
212
211
210
209
209
208
208
207
206
207
206
205
205
204
203
203
202
201
200
199
198
198
197
197
196
196
195
196
195
193
194
192
193
192
191
189
190
187
189
188
188
187
187
184
186
186
185
184
182
180
183
182
181
181
181
180
179
178
174
177
176
173
175
174
173
172
170
169
171
169
170
169
168
167
166
165
164
165
162
164
163
161
162
161
160
159
158
158
157
156
156
155
153
155
154
150
153
152
151
150
149
150
148
149
148
147
146
145
144
141
143
144
143
142
140
141
142
141
139
140
140
140
139
139
138
137
137
137
136
136
135
136
133
134
135
134
133
132
133
132
131
131
128
130
130
129
129
128
128
127
127
124
126
125
124
123
122
123
122
122
121
120
119
119
118
118
116
118
117
116
115
114
112
113
111
112
109
111
110
110
109
108
105
107
104
106
105
104
103
102
100
101
98
100
99
97
99
98
97
96
96
96
95
94
93
92
91
90
90
90
89
89
87
88
86
88
87
86
85
83
85
84
84
82
82
83
81
82
80
81
81
79
80
80
79
78
78
75
78
77
76
76
75
74
74
73
72
71
71
70
70
69
70
69
66
69
68
67
66
66
65
64
62
63
62
61
60
59
58
57
57
56
56
56
55
54
55
54
53
53
52
51
47
49
50
49
48
47
46
45
44
43
42
42
41
42
41
38
38
40
37
39
38
37
36
35
36
35
35
34
33
32
31
31
30
29
28
28
27
26
25
23
24
22
23
22
22
21
21
20
19
18
17
16
15
14
13
12
11
10
10
9
10
6
9
9
8
7
5
6
5
4
4
4
3
3
3
2
1
0